proyfinal/src/viki/013/experimentInOfficeAgust.take6.output/f99864aa-9028-4c25-8e1f-c34d4e99a933.als.dat
{'cnf.clauses': '161767',
 'cnf.totvars': '87638',
 'conflict literals': '875736',
 'conflicts': '13951',
 'decisions': '45196',
 'memused.mb': '32.86',
 'outcome': 'UNSAT',
 'propagations': '19232317',
 'restarts': '61',
 'solver.msecs': 1914,
 'stats_inv': {'cnf.clauses': '118081',
               'cnf.totvars': '69608',
               'conflict literals': '1',
               'conflicts': '1',
               'decisions': '35543',
               'memused.mb': '14.61',
               'outcome': 'SAT',
               'propagations': '73872',
               'restarts': '1',
               'solver.msecs': 37,
               'task.output': "Reading from standard input... Use '--help' for "
                              'help.\n'
                              '============================[ Problem '
                              'Statistics ]=============================\n'
                              '|                                                                             '
                              '|\n'
                              '|  Number of variables:         '
                              '69608                                         '
                              '|\n'
                              '|  Number of clauses:          '
                              '118081                                         '
                              '|\n'
                              '|  Parse time:                   0.02 '
                              's                                       |\n'
                              '|                                                                             '
                              '|\n'
                              '============================[ Search Statistics '
                              ']==============================\n'
                              '| Conflicts |          ORIGINAL         '
                              '|          LEARNT          | Progress |\n'
                              '|           |    Vars  Clauses Literals |    '
                              'Limit  Clauses Lit/Cl |          |\n'
                              '===============================================================================\n'
                              '===============================================================================\n'
                              'restarts              : 1\n'
                              'conflicts             : 1              (27 '
                              '/sec)\n'
                              'decisions             : 35543          (0.00 % '
                              'random) (953100 /sec)\n'
                              'propagations          : 73872          (1980907 '
                              '/sec)\n'
                              'conflict literals     : 1              (0.00 % '
                              'deleted)\n'
                              'Memory used           : 14.61 MB\n'
                              'CPU time              : 0.037292 s\n'
                              '\n'
                              'SATISFIABLE\n'},
 'task.msecs': 2808}
