proyfinal/src/viki/013/andrea/andrea-localstore/experimentInOfficeAgust.take6/worker_6/f99864aa-9028-4c25-8e1f-c34d4e99a933.als.cnf.out
Reading from standard input... Use '--help' for help.
============================[ Problem Statistics ]=============================
|                                                                             |
|  Number of variables:         87638                                         |
|  Number of clauses:          161767                                         |
|  Parse time:                   0.03 s                                       |
|                                                                             |
============================[ Search Statistics ]==============================
| Conflicts |          ORIGINAL         |          LEARNT          | Progress |
|           |    Vars  Clauses Literals |    Limit  Clauses Lit/Cl |          |
===============================================================================
|       100 |   62804   106628   266495 |    39096      100     24 | 28.337 % |
|       250 |   62803   106584   266405 |    43006      249     31 | 28.338 % |
|       475 |   62803   106584   266405 |    47307      474     35 | 28.338 % |
|       812 |   62803   106584   266405 |    52038      811     43 | 28.338 % |
|      1318 |   62784   106508   266225 |    57241     1316     55 | 28.360 % |
|      2077 |   62784   106508   266225 |    62966     2075     72 | 28.360 % |
|      3216 |   62784   106508   266225 |    69262     3214     81 | 28.360 % |
|      4924 |   62750   106368   265901 |    76188     4917     77 | 28.399 % |
|      7486 |   62697   106154   265395 |    83807     7475     77 | 28.459 % |
|     11330 |   48738    64868   163569 |    92188    10048     70 | 44.387 % |
===============================================================================
restarts              : 61
conflicts             : 13951          (7288 /sec)
decisions             : 45196          (0.00 % random) (23609 /sec)
propagations          : 19232317       (10046364 /sec)
conflict literals     : 875736         (53.95 % deleted)
Memory used           : 32.86 MB
CPU time              : 1.91436 s

UNSATISFIABLE
